Route 1: 0 93 14 98 70 59 53 37 6 0
Route 2: 0 7 72 92 49 86 58 55 8 89 76 78 66 0
Route 3: 0 74 20 61 51 45 32 17 54 71 94 0
Route 4: 0 11 25 10 63 18 88 33 40 52 0
Route 5: 0 95 100 41 60 67 24 42 82 39 0
Route 6: 0 16 81 69 99 13 77 48 28 0
Route 7: 0 26 43 3 21 9 36 2 5 0
Route 8: 0 34 87 75 50 91 64 27 31 46 44 62 23 0
Route 9: 0 57 30 96 73 84 19 12 97 0
Route 10: 0 1 80 83 90 68 22 15 47 38 4 85 35 0
Route 11: 0 65 29 79 56 0
